30	100	100	100
20	100	100
19	100	100
29	100	100
26	100	100
33	100	100
4	100	100
44	100	100
34	100	100
9	100	100
33	100	100
26	100	100
4	100	100
28	100	100
3	100	100
48	100	100
11	100	100
3	100	100
45	100	100
49	100	100
47	100	100
6	100	100
35	100	100
41	100	100
21	100	100
31	100	100
39	100	100
13	100	100
43	100	100
13	100	100
39	100	100
